
******************************************************************************
This program contains Ipopt, a library for large-scale nonlinear optimization.
 Ipopt is released as open source code under the Eclipse Public License (EPL).
         For more information visit http://projects.coin-or.org/Ipopt

This version of Ipopt was compiled from source code available at
    https://github.com/IDAES/Ipopt as part of the Institute for the Design of
    Advanced Energy Systems Process Systems Engineering Framework (IDAES PSE
    Framework) Copyright (c) 2018-2019. See https://github.com/IDAES/idaes-pse.

This version of Ipopt was compiled using HSL, a collection of Fortran codes
    for large-scale scientific computation.  All technical papers, sales and
    publicity material resulting from use of the HSL codes within IPOPT must
    contain the following acknowledgement:
        HSL, a collection of Fortran codes for large-scale scientific
        computation. See http://www.hsl.rl.ac.uk.
******************************************************************************

This is Ipopt version 3.13.2, running with linear solver ma27.

Number of nonzeros in equality constraint Jacobian...:      928
Number of nonzeros in inequality constraint Jacobian.:        0
Number of nonzeros in Lagrangian Hessian.............:      806

Total number of variables............................:      403
                     variables with only lower bounds:      124
                variables with lower and upper bounds:      217
                     variables with only upper bounds:        0
Total number of equality constraints.................:      402
Total number of inequality constraints...............:        0
        inequality constraints with only lower bounds:        0
   inequality constraints with lower and upper bounds:        0
        inequality constraints with only upper bounds:        0

iter    objective    inf_pr   inf_du lg(mu)  ||d||  lg(rg) alpha_du alpha_pr  ls
   0  0.0000000e+00 1.11e+00 1.14e-13  -1.0 0.00e+00    -  0.00e+00 0.00e+00   0
   1  2.3509661e-03 1.04e+00 1.00e+04  -1.0 6.79e+04    -  5.26e-01 6.43e-02h  1
   2  3.4242511e-03 1.03e+00 1.08e+04  -1.0 1.68e+05    -  4.91e-01 8.51e-03h  1
   3  8.9686855e+00 3.24e-01 4.84e+05  -1.0 1.79e+05    -  5.00e-01 9.90e-01h  1
   4  1.1241091e+01 4.62e-02 3.97e+04  -1.0 2.13e+04    -  9.01e-01 9.90e-01h  1
   5  1.1294826e+01 1.48e-03 4.64e+02  -1.0 1.28e+03    -  9.89e-01 9.90e-01h  1
   6  1.1306264e+01 1.61e-05 4.09e+05  -1.0 1.00e+02    -  9.52e-01 9.90e-01h  1
   7  1.1368476e+01 1.95e-05 7.11e+08  -1.0 8.87e+03    -  7.22e-01 6.19e-02f  5
   8  1.1573482e+01 2.34e-05 3.01e+08  -1.0 1.82e+03    -  7.22e-01 9.90e-01H  1
   9  1.1578852e+01 2.33e-05 1.13e+11  -1.0 6.06e+03    -  9.90e-01 7.73e-03h  8
iter    objective    inf_pr   inf_du lg(mu)  ||d||  lg(rg) alpha_du alpha_pr  ls
  10  1.1861865e+01 6.32e-06 2.27e+09  -1.0 2.49e+03    -  1.00e+00 9.90e-01H  1
  11  1.2086126e+01 1.25e-06 1.16e+11  -1.0 1.94e+03    -  1.00e+00 9.90e-01H  1
In iteration 11, 31 Slacks too small, adjusting variable bounds
  12  1.2041949e+01 1.21e-08 1.16e+13  -1.0 3.81e+02    -  1.00e+00 9.90e-01H  1
  13  1.2039128e+01 9.06e-09 1.62e-01  -1.0 2.41e+01    -  1.00e+00 1.00e+00h  1
  14  1.2037663e+01 1.15e-08 1.16e+13  -9.0 1.39e+04    -  9.72e-01 8.98e-04f 10
  15  1.2036933e+01 1.21e-08 1.19e+13  -9.0 1.18e+04    -  9.83e-01 5.30e-04f 11
  16  1.2036202e+01 1.27e-08 1.19e+13  -9.0 9.04e+03    -  9.89e-01 6.91e-04f 11
  17  1.2035473e+01 1.33e-08 1.19e+13  -9.0 7.48e+03    -  1.00e+00 8.34e-04f 11
  18  1.2035382e+01 1.33e-08 1.19e+13  -9.0 6.81e+03    -  1.00e+00 1.14e-04f 14
  19  1.1301375e+01 1.21e-03 2.98e+11  -9.0 6.55e+03    -  1.00e+00 9.75e-01f  1
iter    objective    inf_pr   inf_du lg(mu)  ||d||  lg(rg) alpha_du alpha_pr  ls
  20  1.1295276e+01 1.28e-06 5.34e-02  -9.0 5.28e+01    -  1.00e+00 1.00e+00h  1
  21  1.1295276e+01 4.04e-12 5.46e-08  -9.0 1.36e-03    -  1.00e+00 1.00e+00h  1

Number of Iterations....: 21

                                   (scaled)                 (unscaled)
Objective...............:   1.1295275750649237e+01    1.1295275750649237e+01
Dual infeasibility......:   5.4605336512940600e-08    5.4605336512940600e-08
Constraint violation....:   4.0412118096355698e-12    4.0412118096355698e-12
Complementarity.........:   9.0995479015195906e-10    9.0995479015195906e-10
Overall NLP error.......:   7.8713934023166795e-10    5.4605336512940600e-08


Number of objective function evaluations             = 111
Number of objective gradient evaluations             = 22
Number of equality constraint evaluations            = 111
Number of inequality constraint evaluations          = 0
Number of equality constraint Jacobian evaluations   = 22
Number of inequality constraint Jacobian evaluations = 0
Number of Lagrangian Hessian evaluations             = 21
Total CPU secs in IPOPT (w/o function evaluations)   =      0.046
Total CPU secs in NLP function evaluations           =      1.010

EXIT: Optimal Solution Found.
